
;this file is automatically generated: Fri Aug 05 16:28:35 IST 2016

;declarations generated

(declare-fun obj_22873e8c_64c7_40d7_8024_cf399da68adb ( Int) Int )
(declare-fun Gender ( Int) Int )
(declare-fun oclExcludes ( Int Int) Bool )
(declare-fun oclSelect ( Int Bool) Int )
(declare-fun Cardinality ( Int) Int )
(declare-fun rel_4e111a6e_c797_4849_a746_a838564bd387_Marriage ( Int Int) Bool )
(declare-fun type_c98b4596_7aa9_4b96_8664_06f5e4825ff3_Person ( Int) Bool )
(declare-fun container_ ( Int) Int )
(declare-fun CivilStatus ( Int) Int )
(declare-fun oclIncludes ( Int Int) Bool )
(declare-fun person_name ( Int) Int )
(declare-fun aux1 () Int )
(declare-fun aux0 () Int )
(declare-fun aux3 () Int )
(declare-fun aux2 () Int )
(declare-fun aux4 () Int )
(declare-fun weight4 () Int )
(declare-fun weight3 () Int )
(declare-fun ObjAt ( Int Int) Int )
(declare-fun weight2 () Int )
(declare-fun weight1 () Int )
(declare-fun weight0 () Int )

;formula(s) generated
(assert (forall ((p Int)) (=> ( type_c98b4596_7aa9_4b96_8664_06f5e4825ff3_Person p )  (and (>= ( CivilStatus ( obj_22873e8c_64c7_40d7_8024_cf399da68adb p )  )  0) (<= ( CivilStatus ( obj_22873e8c_64c7_40d7_8024_cf399da68adb p )  )  3)))))
(assert (forall ((p Int)) (=> ( type_c98b4596_7aa9_4b96_8664_06f5e4825ff3_Person p )  (and (>= ( Gender ( obj_22873e8c_64c7_40d7_8024_cf399da68adb p )  )  0) (<= ( Gender ( obj_22873e8c_64c7_40d7_8024_cf399da68adb p )  )  1)))))
(assert (and (>= aux0 0) (<= aux0 1)))
(assert (or (or (forall ((x Int)(y Int)) (=> (and ( rel_4e111a6e_c797_4849_a746_a838564bd387_Marriage ( obj_22873e8c_64c7_40d7_8024_cf399da68adb x )   ( obj_22873e8c_64c7_40d7_8024_cf399da68adb y )  )  (and ( type_c98b4596_7aa9_4b96_8664_06f5e4825ff3_Person x )  ( type_c98b4596_7aa9_4b96_8664_06f5e4825ff3_Person y ) )) (or (or (or (= (* ( Cardinality ( container_ x )  )  0) (* ( Cardinality ( container_ y )  )  0)) (= (* ( Cardinality ( container_ x )  )  1) (* ( Cardinality ( container_ y )  )  0))) (= (* ( Cardinality ( container_ x )  )  0) (* ( Cardinality ( container_ y )  )  1))) (= (* ( Cardinality ( container_ x )  )  1) (* ( Cardinality ( container_ y )  )  1))))) (and (= aux0 1) true)) (and (= aux0 0) false)))
(assert (forall ((x Int)(y Int)) (=> (and ( rel_4e111a6e_c797_4849_a746_a838564bd387_Marriage ( obj_22873e8c_64c7_40d7_8024_cf399da68adb x )   ( obj_22873e8c_64c7_40d7_8024_cf399da68adb y )  )  (and ( type_c98b4596_7aa9_4b96_8664_06f5e4825ff3_Person x )  ( type_c98b4596_7aa9_4b96_8664_06f5e4825ff3_Person y ) )) (or (or (or (= (* ( Cardinality ( container_ x )  )  0) (* ( Cardinality ( container_ y )  )  0)) (= (* ( Cardinality ( container_ x )  )  1) (* ( Cardinality ( container_ y )  )  0))) (= (* ( Cardinality ( container_ x )  )  0) (* ( Cardinality ( container_ y )  )  1))) (= (* ( Cardinality ( container_ x )  )  1) (* ( Cardinality ( container_ y )  )  1))))))
(assert (and (=> (= aux0 0) (= weight0 6)) (=> (= aux0 1) (= weight0 0))))
(assert (and (>= aux1 0) (<= aux1 1)))
(assert (or (or (forall ((p1 Int)(p2 Int)) (=> (and ( type_c98b4596_7aa9_4b96_8664_06f5e4825ff3_Person p1 )  ( type_c98b4596_7aa9_4b96_8664_06f5e4825ff3_Person p2 ) ) (=> (not (= ( obj_22873e8c_64c7_40d7_8024_cf399da68adb p1 )  ( obj_22873e8c_64c7_40d7_8024_cf399da68adb p2 ) ) ) (not (= ( person_name ( obj_22873e8c_64c7_40d7_8024_cf399da68adb p1 )  )  ( person_name ( obj_22873e8c_64c7_40d7_8024_cf399da68adb p2 )  ) ) )))) (and (= aux1 1) true)) (and (= aux1 0) false)))
(assert (and (=> (= aux1 0) (= weight1 12)) (=> (= aux1 1) (= weight1 0))))
(assert (and (>= aux2 0) (<= aux2 1)))
(assert (or (or (forall ((p Int)) (=> ( type_c98b4596_7aa9_4b96_8664_06f5e4825ff3_Person p )  (=> (= ( Gender ( obj_22873e8c_64c7_40d7_8024_cf399da68adb p )  )  0) (not (exists ((v Int)) (and ( type_c98b4596_7aa9_4b96_8664_06f5e4825ff3_Person v )  ( rel_4e111a6e_c797_4849_a746_a838564bd387_Marriage ( obj_22873e8c_64c7_40d7_8024_cf399da68adb p )   ( obj_22873e8c_64c7_40d7_8024_cf399da68adb v )  ) )) )))) (and (= aux2 1) true)) (and (= aux2 0) false)))
(assert (and (=> (= aux2 0) (= weight2 9)) (=> (= aux2 1) (= weight2 0))))
(assert (and (>= aux3 0) (<= aux3 1)))
(assert (or (or (forall ((p Int)) (=> ( type_c98b4596_7aa9_4b96_8664_06f5e4825ff3_Person p )  (=> (= ( Gender ( obj_22873e8c_64c7_40d7_8024_cf399da68adb p )  )  1) (not (exists ((v Int)) (and ( type_c98b4596_7aa9_4b96_8664_06f5e4825ff3_Person v )  ( rel_4e111a6e_c797_4849_a746_a838564bd387_Marriage ( obj_22873e8c_64c7_40d7_8024_cf399da68adb p )   ( obj_22873e8c_64c7_40d7_8024_cf399da68adb v )  ) )) )))) (and (= aux3 1) true)) (and (= aux3 0) false)))
(assert (and (=> (= aux3 0) (= weight3 9)) (=> (= aux3 1) (= weight3 0))))
(assert (and (>= aux4 0) (<= aux4 1)))
(assert (or (or (exists ((p Int)) ( type_c98b4596_7aa9_4b96_8664_06f5e4825ff3_Person ( obj_22873e8c_64c7_40d7_8024_cf399da68adb p )  ) ) (and (= aux4 1) true)) (and (= aux4 0) false)))
(assert (and (=> (= aux4 0) (= weight4 3)) (=> (= aux4 1) (= weight4 0))))
(assert (= (+ (+ (+ (+ aux0 aux1) aux2) aux3) aux4) 0))

 ;end of formula 